NAME : bier127.tsp
COMMENT : Optimal tour for bier127.tsp
TYPE : TOUR
DIMENSION : 127
Total Length: 122425.77058193521
TOUR_SECTION
1
16
37
35
44
103
45
54
57
51
2
50
5
121
56
52
124
66
113
64
58
100
3
90
116
60
61
91
62
59
67
73
74
68
71
70
69
75
76
78
117
84
81
126
82
83
101
102
63
119
96
109
88
87
86
85
110
104
125
89
92
99
65
55
47
49
53
48
118
46
94
112
111
107
127
93
95
123
97
98
32
29
28
122
33
25
26
38
39
42
34
43
40
36
41
30
14
12
31
27
80
79
77
18
21
17
20
108
15
106
6
24
23
4
22
19
72
8
9
11
114
105
7
120
13
115
10
-1
EOF
